4 
5  02 21 36 51 
6  06 20 34 46 
7  00 16 31 46 
8  01 16 31 46 
9  01 16 31 46 
10  01 16 31 46 
11  01 16 31 46 
12  01 16 31 46 
13  00 16 31 46 
14  01 16 31 46 
15  01 16 31 46 
16  01 16 31 46 
17  01 16 31 46 
18  01 16 31 46 
19  01 15 32 47 
20  02 17 32 46 
21  01 16 31 46 
22  01 16 31 46 
23 
0 
